c Generated map
c Size: 10 * 10, weights in range: 1 to 10, walls: False, with ratio 0.0
c dim 6 of 6
c
p sp 100 180
c graph contains 100 nodes and 180 arcs
c
a 1 11 7
a 11 1 7
a 1 2 5
a 2 1 5
a 2 12 2
a 12 2 2
a 2 3 7
a 3 2 7
a 3 13 8
a 13 3 8
a 3 4 7
a 4 3 7
a 4 14 9
a 14 4 9
a 4 5 4
a 5 4 4
a 5 15 10
a 15 5 10
a 5 6 1
a 6 5 1
a 6 16 8
a 16 6 8
a 6 7 7
a 7 6 7
a 7 17 3
a 17 7 3
a 7 8 9
a 8 7 9
a 8 18 4
a 18 8 4
a 8 9 2
a 9 8 2
a 9 19 1
a 19 9 1
a 9 10 5
a 10 9 5
a 10 20 6
a 20 10 6
a 11 21 1
a 21 11 1
a 11 12 6
a 12 11 6
a 12 22 6
a 22 12 6
a 12 13 3
a 13 12 3
a 13 23 1
a 23 13 1
a 13 14 5
a 14 13 5
a 14 24 2
a 24 14 2
a 14 15 9
a 15 14 9
a 15 25 2
a 25 15 2
a 15 16 4
a 16 15 4
a 16 26 9
a 26 16 9
a 16 17 8
a 17 16 8
a 17 27 5
a 27 17 5
a 17 18 5
a 18 17 5
a 18 28 10
a 28 18 10
a 18 19 8
a 19 18 8
a 19 29 4
a 29 19 4
a 19 20 7
a 20 19 7
a 20 30 3
a 30 20 3
a 21 31 10
a 31 21 10
a 21 22 6
a 22 21 6
a 22 32 10
a 32 22 10
a 22 23 7
a 23 22 7
a 23 33 1
a 33 23 1
a 23 24 6
a 24 23 6
a 24 34 8
a 34 24 8
a 24 25 6
a 25 24 6
a 25 35 9
a 35 25 9
a 25 26 6
a 26 25 6
a 26 36 1
a 36 26 1
a 26 27 2
a 27 26 2
a 27 37 8
a 37 27 8
a 27 28 10
a 28 27 10
a 28 38 4
a 38 28 4
a 28 29 2
a 29 28 2
a 29 39 3
a 39 29 3
a 29 30 8
a 30 29 8
a 30 40 7
a 40 30 7
a 31 41 5
a 41 31 5
a 31 32 7
a 32 31 7
a 32 42 5
a 42 32 5
a 32 33 6
a 33 32 6
a 33 43 10
a 43 33 10
a 33 34 7
a 34 33 7
a 34 44 7
a 44 34 7
a 34 35 10
a 35 34 10
a 35 45 6
a 45 35 6
a 35 36 9
a 36 35 9
a 36 46 3
a 46 36 3
a 36 37 10
a 37 36 10
a 37 47 8
a 47 37 8
a 37 38 7
a 38 37 7
a 38 48 1
a 48 38 1
a 38 39 4
a 39 38 4
a 39 49 4
a 49 39 4
a 39 40 1
a 40 39 1
a 40 50 7
a 50 40 7
a 41 51 10
a 51 41 10
a 41 42 5
a 42 41 5
a 42 52 6
a 52 42 6
a 42 43 4
a 43 42 4
a 43 53 4
a 53 43 4
a 43 44 6
a 44 43 6
a 44 54 6
a 54 44 6
a 44 45 6
a 45 44 6
a 45 55 8
a 55 45 8
a 45 46 1
a 46 45 1
a 46 56 7
a 56 46 7
a 46 47 1
a 47 46 1
a 47 57 2
a 57 47 2
a 47 48 9
a 48 47 9
a 48 58 7
a 58 48 7
a 48 49 3
a 49 48 3
a 49 59 6
a 59 49 6
a 49 50 2
a 50 49 2
a 50 60 6
a 60 50 6
a 51 61 6
a 61 51 6
a 51 52 7
a 52 51 7
a 52 62 7
a 62 52 7
a 52 53 8
a 53 52 8
a 53 63 1
a 63 53 1
a 53 54 1
a 54 53 1
a 54 64 2
a 64 54 2
a 54 55 1
a 55 54 1
a 55 65 3
a 65 55 3
a 55 56 2
a 56 55 2
a 56 66 9
a 66 56 9
a 56 57 8
a 57 56 8
a 57 67 3
a 67 57 3
a 57 58 8
a 58 57 8
a 58 68 5
a 68 58 5
a 58 59 6
a 59 58 6
a 59 69 7
a 69 59 7
a 59 60 7
a 60 59 7
a 60 70 1
a 70 60 1
a 61 71 3
a 71 61 3
a 61 62 6
a 62 61 6
a 62 72 7
a 72 62 7
a 62 63 2
a 63 62 2
a 63 73 3
a 73 63 3
a 63 64 4
a 64 63 4
a 64 74 7
a 74 64 7
a 64 65 9
a 65 64 9
a 65 75 10
a 75 65 10
a 65 66 5
a 66 65 5
a 66 76 1
a 76 66 1
a 66 67 7
a 67 66 7
a 67 77 10
a 77 67 10
a 67 68 1
a 68 67 1
a 68 78 2
a 78 68 2
a 68 69 10
a 69 68 10
a 69 79 9
a 79 69 9
a 69 70 10
a 70 69 10
a 70 80 1
a 80 70 1
a 71 81 2
a 81 71 2
a 71 72 4
a 72 71 4
a 72 82 3
a 82 72 3
a 72 73 9
a 73 72 9
a 73 83 1
a 83 73 1
a 73 74 2
a 74 73 2
a 74 84 10
a 84 74 10
a 74 75 9
a 75 74 9
a 75 85 10
a 85 75 10
a 75 76 1
a 76 75 1
a 76 86 9
a 86 76 9
a 76 77 8
a 77 76 8
a 77 87 1
a 87 77 1
a 77 78 6
a 78 77 6
a 78 88 5
a 88 78 5
a 78 79 8
a 79 78 8
a 79 89 4
a 89 79 4
a 79 80 9
a 80 79 9
a 80 90 7
a 90 80 7
a 81 91 7
a 91 81 7
a 81 82 9
a 82 81 9
a 82 92 9
a 92 82 9
a 82 83 4
a 83 82 4
a 83 93 5
a 93 83 5
a 83 84 2
a 84 83 2
a 84 94 2
a 94 84 2
a 84 85 4
a 85 84 4
a 85 95 10
a 95 85 10
a 85 86 7
a 86 85 7
a 86 96 6
a 96 86 6
a 86 87 2
a 87 86 2
a 87 97 5
a 97 87 5
a 87 88 5
a 88 87 5
a 88 98 3
a 98 88 3
a 88 89 10
a 89 88 10
a 89 99 5
a 99 89 5
a 89 90 6
a 90 89 6
a 90 100 10
a 100 90 10
a 91 92 10
a 92 91 10
a 92 93 2
a 93 92 2
a 93 94 2
a 94 93 2
a 94 95 4
a 95 94 4
a 95 96 2
a 96 95 2
a 96 97 4
a 97 96 4
a 97 98 4
a 98 97 4
a 98 99 9
a 99 98 9
a 99 100 4
a 100 99 4
